GPU_version/outputs/rc206.out
Total number of lines in the file: 110
Total number of nodes including depot: 101
Customer 1: (40, 50), Demand: 0, Time Window: [0, 960], Service Time: 0
Customer 2: (25, 85), Demand: 20, Time Window: [613, 853], Service Time: 10
Customer 3: (22, 75), Demand: 30, Time Window: [92, 332], Service Time: 10
Customer 4: (22, 85), Demand: 10, Time Window: [411, 651], Service Time: 10
Customer 5: (20, 80), Demand: 40, Time Window: [584, 824], Service Time: 10
calling MST kernel
Post Processing Route
Post 2 opt Processing Route
2-opt between 17 and 18 improved cost from 2245.82 to 2244.04
Elapsed time: 0.645119 seconds
Final Route: 
Route #1: 80 91 
Route #2: 92 95 84 85 51 
Route #3: 63 76 89 56 
Route #4: 64 62 67 50 34 
Route #5: 31 29 27 26 
Route #6: 28 30 32 
Route #7: 33 94 93 
Route #8: 71 96 54 
Route #9: 72 41 
Route #10: 39 42 44 43 
Route #11: 40 38 37 
Route #12: 36 35 
Route #13: 81 61 68 
Route #14: 90 69 98 88 60 
Route #15: 78 73 79 7 6 
Route #16: 2 8 46 4 
Route #17: 45 5 3 1 
Route #18: 12 11 10 9 13 
Route #19: 14 47 15 16 17 55 100 70 
Route #20: 53 
Route #21: 65 82 99 52 86 74 58 77 25 
Route #22: 23 21 48 
Route #23: 18 19 49 20 22 24 
Route #24: 75 87 
Route #25: 59 97 57 66 
Route #26: 83 
Route #27: Total Distance: 2245.82
Final route is valid
