outputs/rc206.txt.out
filename: RC206
Vehicles: 25, Capacity: 1000
Total customers : 101
No of routes: 24
Route #1: 90
Route #2: 65 82 99 52 86 74 58 77 25
Route #3: 23 21 48
Route #4: 20 49 18 19 22 24
Route #5: 75 87
Route #6: 59 97 57 66
Route #7: 83 69 98 53 88 60 100 70 55
Route #8: 78 73 79 7 6
Route #9: 2 8 46 4
Route #10: 45 5 3 1
Route #11: 12 14 47 15 16 17
Route #12: 10 11 9 13 91 80
Route #13: 92 95 84 85 51
Route #14: 63 76 89 56
Route #15: 64 62 50 34
Route #16: 31 29 27 26
Route #17: 28 30 32
Route #18: 94 67 33 93
Route #19: 96 71 54
Route #20: 72 41
Route #21: 39 42 44 43
Route #22: 38 40 37
Route #23: 36 35
Route #24: 81 61 68
Cost 2170
